
Gurobi 12.0.2 (mac64[arm], gurobi_cl) logging started Wed Jun 17 13:42:39 2026

Set parameter Username
Set parameter LicenseID to value 2676824
Set parameter LogFile to value "gurobi.log"
Using license file /Users/eduardmrug/gurobi.lic

Gurobi 12.0.2 (mac64[arm], gurobi_cl) logging started Wed Jun 17 13:43:58 2026

Set parameter WLSAccessID
Set parameter WLSSecret
Set parameter LicenseID to value 2836280
Set parameter LogFile to value "gurobi.log"
Using license file /Users/eduardmrug/gurobi.lic
Academic license 2836280 - for non-commercial use only - registered to e.___@student.rug.nl
